# Objective value = 2.5062099999999982e+03
I_0_0 1932
I_0_1 2514
I_0_2 2140
I_0_3 2.9300000000000005e+03
I_1_0 104
I_1_1 52
I_1_2 104
I_1_3 52
I_2_0 142
I_2_1 142
I_2_2 7.1000000000000028e+01
I_2_3 2.8421709430404007e-14
I_3_0 36
I_3_1 0
I_3_2 3.5999999999999972e+01
I_3_3 0
I_4_0 83
I_4_1 0
I_4_2 83
I_4_3 0
I_5_0 126
I_5_1 1.2600000000000001e+02
I_5_2 63
I_5_3 1.4210854715202004e-14
I_6_0 30
I_6_1 0
I_6_2 30
I_6_3 5.1625370645069779e-14
I_7_0 10
I_7_1 4.4408920985006262e-15
I_7_2 10
I_7_3 -1.9428902930940239e-14
I_8_0 83
I_8_1 -7.37188088351104e-14
I_8_2 8.2999999999999986e+01
I_8_3 0
I_9_0 46
I_9_1 0
I_9_2 4.5999999999999957e+01
I_9_3 0
I_10_0 126
I_10_1 126
I_10_2 6.2999999999999972e+01
I_10_3 5.1159076974727213e-13
I_11_0 95
I_11_1 -2.7422508708241367e-13
I_11_2 95
I_11_3 -2.7422508708241367e-13
I_12_0 22
I_12_1 22
I_12_2 1.0999999999999837e+01
I_12_3 2.7533531010703882e-14
I_13_0 68
I_13_1 3.3999999999999957e+01
I_13_2 68
I_13_3 3.3999999999999993e+01
I_14_0 116
I_14_1 5.7999999999999986e+01
I_14_2 116
I_14_3 58
I_15_0 55
I_15_1 0
I_15_2 55
I_15_3 0
q_1_0 0
q_1_1 1.0399999999999987e+02
q_1_2 0
q_2_0 71
q_2_1 0
q_2_2 0
q_3_0 0
q_3_1 7.1999999999999972e+01
q_3_2 2.8421709430404007e-14
q_4_0 0
q_4_1 166
q_4_2 0
q_5_0 6.3000000000000014e+01
q_5_1 0
q_5_2 1.4210854715202004e-14
q_6_0 0
q_6_1 60
q_6_2 5.1625370645069779e-14
q_7_0 4.4408920985006262e-15
q_7_1 1.9999999999999996e+01
q_7_2 -1.9428902930940239e-14
q_8_0 -7.37188088351104e-14
q_8_1 1.6600000000000006e+02
q_8_2 1.4210854715202004e-14
q_9_0 0
q_9_1 9.1999999999999957e+01
q_9_2 4.2632564145606011e-14
q_10_0 63
q_10_1 0
q_10_2 5.4001247917767614e-13
q_11_0 -2.7422508708241367e-13
q_11_1 1.9000000000000028e+02
q_11_2 -2.7422508708241367e-13
q_12_0 11
q_12_1 -1.5809575870662229e-13
q_12_2 1.9251267247000214e-13
q_13_0 -3.9634961979118088e-14
q_13_1 6.7999999999999986e+01
q_13_2 0
q_14_0 -1.4488410471358293e-14
q_14_1 116
q_14_2 0
q_15_0 0
q_15_1 110
q_15_2 0
y_0_0 1
y_0_1 1
y_0_2 0
y_1_0 0
y_1_1 1
y_1_2 -8.0491169285323849e-16
y_2_0 1
y_2_1 0
y_2_2 1.1102230246251565e-16
y_3_0 0
y_3_1 9.9999999999999911e-01
y_3_2 0
y_4_0 0
y_4_1 1
y_4_2 0
y_5_0 1.0000000000000002e+00
y_5_1 0
y_5_2 0
y_6_0 0
y_6_1 1
y_6_2 1.7208456881689926e-15
y_7_0 4.4408920985006262e-16
y_7_1 1
y_7_2 -1.9428902930940239e-15
y_8_0 -8.8817841970012523e-16
y_8_1 9.9999999999999978e-01
y_8_2 0
y_9_0 0
y_9_1 9.9999999999999911e-01
y_9_2 0
y_10_0 1
y_10_1 1.1102230246251565e-16
y_10_2 0
y_11_0 -2.8865798640254070e-15
y_11_1 1
y_11_2 -2.8865798640254070e-15
y_12_0 1
y_12_1 -7.2719608112947753e-15
y_12_2 7.4940054162198066e-15
y_13_0 -1.1657341758564144e-15
y_13_1 1
y_13_2 0
y_14_0 -2.4980018054066022e-16
y_14_1 1
y_14_2 8.3266726846886741e-17
y_15_0 0
y_15_1 1
y_15_2 0
x_0_1_0 0
x_0_1_1 1.0000000000000009e+00
x_0_1_2 -1.6098233857064770e-15
x_0_2_0 9.9999999999999967e-01
x_0_2_1 0
x_0_2_2 1.1102230246251565e-16
x_0_3_0 0
x_0_3_1 0
x_0_3_2 0
x_0_4_0 0
x_0_4_1 9.9999999999999856e-01
x_0_4_2 0
x_0_5_0 -4.9960036108132044e-16
x_0_5_1 0
x_0_5_2 2.55351295663786e-15
x_0_6_0 0
x_0_6_1 0
x_0_6_2 0
x_0_7_0 0
x_0_7_1 0
x_0_7_2 0
x_0_8_0 0
x_0_8_1 0
x_0_8_2 0
x_0_9_0 1.1102230246251565e-16
x_0_9_1 0
x_0_9_2 0
x_0_10_0 9.9999999999999312e-01
x_0_10_1 0
x_0_10_2 0
x_0_11_0 0
x_0_11_1 0
x_0_11_2 0
x_0_12_0 0
x_0_12_1 0
x_0_12_2 0
x_0_13_0 0
x_0_13_1 0
x_0_13_2 0
x_0_14_0 0
x_0_14_1 0
x_0_14_2 0
x_0_15_0 0
x_0_15_1 0
x_0_15_2 0
x_1_2_0 0
x_1_2_1 0
x_1_2_2 0
x_1_3_0 0
x_1_3_1 0.999999999999999
x_1_3_2 0
x_1_4_0 0
x_1_4_1 0
x_1_4_2 0
x_1_5_0 0
x_1_5_1 0
x_1_5_2 0
x_1_6_0 0
x_1_6_1 0
x_1_6_2 0
x_1_7_0 0
x_1_7_1 0
x_1_7_2 0
x_1_8_0 0
x_1_8_1 0
x_1_8_2 0
x_1_9_0 0
x_1_9_1 0
x_1_9_2 0
x_1_10_0 0
x_1_10_1 0
x_1_10_2 0
x_1_11_0 0
x_1_11_1 0
x_1_11_2 0
x_1_12_0 0
x_1_12_1 0
x_1_12_2 0
x_1_13_0 0
x_1_13_1 0
x_1_13_2 0
x_1_14_0 0
x_1_14_1 0
x_1_14_2 0
x_1_15_0 0
x_1_15_1 0
x_1_15_2 0
x_2_3_0 0
x_2_3_1 0
x_2_3_2 0
x_2_4_0 0
x_2_4_1 0
x_2_4_2 0
x_2_5_0 1.0000000000000002e+00
x_2_5_1 0
x_2_5_2 5.5511151231257827e-17
x_2_6_0 0
x_2_6_1 0
x_2_6_2 0
x_2_7_0 0
x_2_7_1 0
x_2_7_2 0
x_2_8_0 0
x_2_8_1 0
x_2_8_2 0
x_2_9_0 0
x_2_9_1 0
x_2_9_2 0
x_2_10_0 -2.7755575615628914e-16
x_2_10_1 0
x_2_10_2 0
x_2_11_0 0
x_2_11_1 0
x_2_11_2 0
x_2_12_0 0
x_2_12_1 0
x_2_12_2 0
x_2_13_0 0
x_2_13_1 0
x_2_13_2 0
x_2_14_0 0
x_2_14_1 0
x_2_14_2 0
x_2_15_0 0
x_2_15_1 0
x_2_15_2 0
x_3_4_0 0
x_3_4_1 0
x_3_4_2 0
x_3_5_0 0
x_3_5_1 0
x_3_5_2 0
x_3_6_0 0
x_3_6_1 0
x_3_6_2 0
x_3_7_0 0
x_3_7_1 5.5511151231257827e-17
x_3_7_2 0
x_3_8_0 0
x_3_8_1 9.9999999999999911e-01
x_3_8_2 0
x_3_9_0 0
x_3_9_1 0
x_3_9_2 0
x_3_10_0 0
x_3_10_1 0
x_3_10_2 0
x_3_11_0 0
x_3_11_1 0
x_3_11_2 0
x_3_12_0 0
x_3_12_1 0
x_3_12_2 0
x_3_13_0 0
x_3_13_1 0
x_3_13_2 0
x_3_14_0 0
x_3_14_1 0
x_3_14_2 0
x_3_15_0 0
x_3_15_1 0
x_3_15_2 0
x_4_5_0 0
x_4_5_1 0
x_4_5_2 0
x_4_6_0 0
x_4_6_1 5.5511151231257827e-17
x_4_6_2 0
x_4_7_0 0
x_4_7_1 0
x_4_7_2 0
x_4_8_0 0
x_4_8_1 0
x_4_8_2 0
x_4_9_0 0
x_4_9_1 0
x_4_9_2 -1.5265566588595902e-14
x_4_10_0 0
x_4_10_1 0
x_4_10_2 0
x_4_11_0 0
x_4_11_1 1.0000000000000002e+00
x_4_11_2 -3.2057689836051395e-15
x_4_12_0 0
x_4_12_1 0
x_4_12_2 0
x_4_13_0 0
x_4_13_1 0
x_4_13_2 0
x_4_14_0 0
x_4_14_1 0
x_4_14_2 0
x_4_15_0 0
x_4_15_1 -1.7208456881689926e-15
x_4_15_2 0
x_5_6_0 0
x_5_6_1 0
x_5_6_2 6.1062266354383610e-15
x_5_7_0 4.4408920985006262e-16
x_5_7_1 0
x_5_7_2 -1.9428902930940239e-15
x_5_8_0 -1.7763568394002505e-15
x_5_8_1 0
x_5_8_2 0
x_5_9_0 0
x_5_9_1 0
x_5_9_2 1.8374191057546341e-14
x_5_10_0 0
x_5_10_1 0
x_5_10_2 0
x_5_11_0 -2.8865798640254070e-15
x_5_11_1 0
x_5_11_2 0
x_5_12_0 1.0000000000000049e+00
x_5_12_1 0
x_5_12_2 0
x_5_13_0 0
x_5_13_1 0
x_5_13_2 0
x_5_14_0 0
x_5_14_1 0
x_5_14_2 0
x_5_15_0 0
x_5_15_1 0
x_5_15_2 0
x_6_7_0 0
x_6_7_1 9.9999999999999756e-01
x_6_7_2 0
x_6_8_0 0
x_6_8_1 0
x_6_8_2 0
x_6_9_0 0
x_6_9_1 1.0000000000000036e+00
x_6_9_2 -2.6645352591003757e-15
x_6_10_0 0
x_6_10_1 1.1102230246251565e-16
x_6_10_2 0
x_6_11_0 0
x_6_11_1 0
x_6_11_2 0
x_6_12_0 0
x_6_12_1 0
x_6_12_2 0
x_6_13_0 0
x_6_13_1 0
x_6_13_2 0
x_6_14_0 0
x_6_14_1 0
x_6_14_2 0
x_6_15_0 0
x_6_15_1 0
x_6_15_2 0
x_7_8_0 0
x_7_8_1 0.999999999999999
x_7_8_2 0
x_7_9_0 0
x_7_9_1 0
x_7_9_2 0
x_7_10_0 0
x_7_10_1 0
x_7_10_2 0
x_7_11_0 0
x_7_11_1 0
x_7_11_2 0
x_7_12_0 2.2204460492503131e-16
x_7_12_1 -7.4940054162198066e-15
x_7_12_2 -1.9428902930940239e-15
x_7_13_0 0
x_7_13_1 0
x_7_13_2 0
x_7_14_0 0
x_7_14_1 0
x_7_14_2 0
x_7_15_0 0
x_7_15_1 0
x_7_15_2 0
x_8_9_0 0
x_8_9_1 0
x_8_9_2 0
x_8_10_0 0
x_8_10_1 0
x_8_10_2 0
x_8_11_0 0
x_8_11_1 0
x_8_11_2 0
x_8_12_0 0
x_8_12_1 0
x_8_12_2 0
x_8_13_0 0
x_8_13_1 0
x_8_13_2 0
x_8_14_0 0
x_8_14_1 0
x_8_14_2 0
x_8_15_0 0
x_8_15_1 0
x_8_15_2 0
x_9_10_0 -5.10702591327572e-15
x_9_10_1 -5.8009153036664429e-15
x_9_10_2 -3.3306690738754696e-15
x_9_11_0 -1.1102230246251565e-15
x_9_11_1 0
x_9_11_2 1.3877787807814457e-16
x_9_12_0 0
x_9_12_1 0
x_9_12_2 7.5495165674510645e-15
x_9_13_0 0
x_9_13_1 0
x_9_13_2 0
x_9_14_0 0
x_9_14_1 0
x_9_14_2 -8.6042284408449632e-16
x_9_15_0 0
x_9_15_1 1
x_9_15_2 6.1617377866696188e-15
x_10_11_0 0
x_10_11_1 0
x_10_11_2 0
x_10_12_0 1.0000000000000047e+00
x_10_12_1 -7.7160500211448380e-15
x_10_12_2 2.1649348980190553e-15
x_10_13_0 0
x_10_13_1 0
x_10_13_2 0
x_10_14_0 1.7208456881689926e-15
x_10_14_1 0
x_10_14_2 0
x_10_15_0 0
x_10_15_1 0
x_10_15_2 0
x_11_12_0 0
x_11_12_1 0
x_11_12_2 0
x_11_13_0 -1.1657341758564144e-15
x_11_13_1 9.9999999999999956e-01
x_11_13_2 -2.8865798640254070e-15
x_11_14_0 -5.5511151231257827e-16
x_11_14_1 0
x_11_14_2 8.3266726846886741e-17
x_11_15_0 0
x_11_15_1 1.7208456881689926e-15
x_11_15_2 0
x_12_13_0 0
x_12_13_1 0
x_12_13_2 0
x_12_14_0 0
x_12_14_1 0
x_12_14_2 0
x_12_15_0 0
x_12_15_1 0
x_12_15_2 -5.5511151231257827e-17
x_13_14_0 -1.1657341758564144e-15
x_13_14_1 1
x_13_14_2 0
x_13_15_0 0
x_13_15_1 0
x_13_15_2 3.1086244689504383e-15
x_14_15_0 0
x_14_15_1 1
x_14_15_2 0
